c gen_tree
c solvable
p cnf 186 223
-1 2 0
-1 -3 0
-1 4 0
-1 5 0
1 -6 0
2 -3 -1 0
-2 -7 0
2 8 0
7 8 -2 0
7 -9 0
-9 -10 0
9 -11 0
9 12 0
-10 11 9 0
-10 13 0
-10 14 0
-13 14 10 0
13 -15 0
-15 16 0
14 -17 0
11 18 0
-11 19 0
-18 19 -11 0
-18 20 0
-20 21 0
-19 -22 0
-22 -23 0
-23 24 0
-12 -25 0
-12 -26 0
-25 -26 -12 0
25 27 0
27 28 0
28 29 0
-26 -30 0
30 31 0
-31 32 0
8 33 0
8 -34 0
-33 34 -8 0
-33 -35 0
35 -36 0
-36 -37 0
-36 -38 0
-36 39 0
-37 38 36 0
-37 -40 0
37 41 0
-40 41 -37 0
40 -42 0
-42 43 0
43 44 0
41 -45 0
45 -46 0
-46 47 0
-38 -48 0
-38 49 0
48 -49 38 0
-48 -50 0
-50 -51 0
-51 -52 0
49 53 0
-53 -54 0
54 55 0
-39 56 0
56 57 0
-57 -58 0
34 -59 0
-59 -60 0
60 -61 0
-3 62 0
3 -63 0
3 64 0
62 -63 3 0
62 65 0
62 -66 0
65 -66 62 0
65 67 0
-67 -68 0
66 -69 0
-63 -70 0
-70 -71 0
71 72 0
-64 -73 0
-64 74 0
73 -74 -64 0
-73 -75 0
-75 76 0
76 77 0
77 -78 0
77 79 0
77 80 0
78 79 -77 0
-78 -81 0
-78 82 0
81 -82 -78 0
81 83 0
-82 84 0
-84 -85 0
79 -86 0
79 87 0
86 -87 79 0
86 88 0
88 89 0
-80 90 0
80 91 0
90 91 -80 0
90 -92 0
-92 93 0
93 -94 0
-91 -95 0
95 -96 0
96 97 0
74 -98 0
-98 -99 0
-99 -100 0
-4 101 0
-4 -102 0
-4 -103 0
101 102 -4 0
-101 -104 0
104 -105 0
-105 106 0
102 107 0
-102 108 0
107 -108 102 0
-107 109 0
-109 -110 0
-110 -111 0
-108 112 0
112 -113 0
-113 -114 0
-114 -115 0
114 116 0
114 -117 0
-115 116 -114 0
-115 -118 0
118 119 0
-119 -120 0
-120 -121 0
116 -122 0
116 123 0
-122 123 116 0
122 124 0
-124 -125 0
-124 -126 0
125 126 124 0
125 127 0
127 -128 0
126 -129 0
129 -130 0
-130 131 0
-123 -132 0
132 -133 0
-133 134 0
-117 135 0
-117 136 0
-135 -136 -117 0
135 -137 0
-136 -138 0
-103 139 0
139 -140 0
140 141 0
141 -142 0
5 -143 0
5 144 0
5 -145 0
-143 -144 -5 0
-143 146 0
146 147 0
-147 148 0
-144 149 0
-144 -150 0
149 150 -144 0
-149 -151 0
150 152 0
-152 153 0
-153 -154 0
-145 155 0
155 156 0
156 -157 0
6 158 0
-6 -159 0
-6 160 0
-158 -159 -6 0
158 -161 0
158 -162 0
161 -162 -158 0
161 -163 0
-163 164 0
-164 165 0
162 -166 0
-166 167 0
167 -168 0
-167 169 0
-168 169 167 0
-169 170 0
-169 -171 0
-170 -171 -169 0
-170 -172 0
172 -173 0
-173 -174 0
-171 -175 0
-175 176 0
-159 177 0
177 -178 0
178 179 0
-160 -180 0
-160 181 0
-180 181 -160 0
180 182 0
182 183 0
183 184 0
181 185 0
185 -186 0
-157 72 0
-58 47 0
-100 58 0
131 69 0
85 -58 0
-186 -72 0
137 16 -176 0
-186 89 128 0
